************************************************************************
file with basedata            : mm21_.bas
initial value random generator: 104631537
************************************************************************
projects                      :  1
jobs (incl. supersource/sink ):  12
horizon                       :  69
RESOURCES
  - renewable                 :  2   R
  - nonrenewable              :  2   N
  - doubly constrained        :  0   D
************************************************************************
PROJECT INFORMATION:
pronr.  #jobs rel.date duedate tardcost  MPM-Time
    1     10      0       13        2       13
************************************************************************
PRECEDENCE RELATIONS:
jobnr.    #modes  #successors   successors
   1        1          3           2   3   4
   2        3          2           6   9
   3        3          2           7  10
   4        3          1           5
   5        3          3           7   9  10
   6        3          2           8  10
   7        3          1           8
   8        3          1          11
   9        3          1          12
  10        3          1          12
  11        3          1          12
  12        1          0        
************************************************************************
REQUESTS/DURATIONS:
jobnr. mode duration  R 1  R 2  N 1  N 2
------------------------------------------------------------------------
  1      1     0       0    0    0    0
  2      1     1       9    0    7    7
         2     4       0    5    6    4
         3     8       6    0    6    3
  3      1     1      10    0    4    8
         2     4       9    0    4    8
         3     4       0    5    3    8
  4      1     1       9    0    9    5
         2     4       0    9    9    5
         3     7       0    7    7    2
  5      1     1       0    6    9    8
         2     2       9    0    9    7
         3     5       0    6    8    3
  6      1     4       7    0    3   10
         2     6       0    6    3    4
         3     9       4    0    2    4
  7      1     1       0    9    9    7
         2     1       9    0   10    9
         3     7       7    0    8    7
  8      1     1       7    0    8    1
         2     2       0    3    7    1
         3     4       7    0    7    1
  9      1     6       0    5    6    2
         2     8       8    0    6    1
         3     8       0    5    5    1
 10      1     3       0    9   10    6
         2     7      10    0    8    4
         3     7       0    6    9    1
 11      1     7       9    0    8    7
         2     9       5    0    6    4
         3    10       0    5    6    3
 12      1     0       0    0    0    0
************************************************************************
RESOURCEAVAILABILITIES:
  R 1  R 2  N 1  N 2
   20   14   63   39
************************************************************************
MAXIMAL LAGS:
from  to  type  delay
    1   12   ES      0
    1    2   ES      0
    2   12   ES      0
    1    3   ES      0
    3   12   ES      0
    1    4   ES      0
    4   12   ES      0
    1    5   ES      0
    5   12   ES      0
    1    6   ES      0
    6   12   ES      0
    1    7   ES      0
    7   12   ES      0
    1    8   ES      0
    8   12   ES      0
    1    9   ES      0
    9   12   ES      0
    1   10   ES      0
   10   12   ES      0
    1   11   ES      0
   11   12   ES      0
    1   12   ES      0
    2    6   SS     -8
    2    6   SE     -9
    2    6   ES     12
    2    6   EE      2
    2    9   SS     -7
    2    9   SE     -7
    2    9   ES     -6
    2    9   EE     -6
    3    7   SS     -8
    3    7   SE    -11
    3    7   ES      1
    3    7   EE    -10
    3   10   SS      9
    3   10   SE      1
    3   10   ES     -6
    3   10   EE      8
    4    5   SS     -8
    4    5   SE      7
    4    5   ES     -4
    4    5   EE     -2
    5    7   SS     11
    5    7   SE    -10
    5    7   ES    -10
    5    7   EE      0
    5    9   SS      5
    5    9   SE      0
    5    9   ES      5
    5    9   EE     -2
    5   10   SS     -4
    5   10   SE      4
    5   10   ES      2
    5   10   EE    -12
    6    8   SS     10
    6    8   SE      7
    6    8   ES      6
    6    8   EE      4
    6   10   SS      1
    6   10   SE     -9
    6   10   ES      1
    6   10   EE     -8
    7    8   SS     -8
    7    8   SE      6
    7    8   ES      6
    7    8   EE      6
    8   11   SS     12
    8   11   SE     -9
    8   11   ES     -9
    8   11   EE      6
************************************************************************
